000 000 000 000 000 002 002 003 004 003 003 002 003 002 003 002 001 006 012 014 018 019 010 021 025 006 003 003 005 013 014
000 000 001 000 001 001 002 003 004 004 005 002 006 003 002 002 001 005 006 013 018 015 012 013 023 012 004 002 004 009 010
000 001 001 001 002 003 004 002 003 005 003 004 006 007 003 003 004 003 005 005 013 021 023 031 021 011 004 002 001 006 009
001 002 001 002 002 002 003 003 004 004 002 005 007 006 005 005 005 004 005 013 025 022 034 026 011 006 004 002 002 004 005
001 001 002 002 002 002 002 001 002 002 004 003 003 006 005 004 006 004 005 015 022 028 030 022 010 003 003 003 003 004 004
001 001 004 001 002 002 002 002 000 001 001 001 002 003 006 004 004 002 003 015 025 020 012 006 005 004 003 003 003 004 003
002 001 001 001 001 001 001 001 000 000 001 001 001 002 002 002 003 002 005 017 013 006 004 002 004 004 003 004 005 003 003
002 001 001 001 001 001 000 001 001 001 000 000 001 001 003 001 002 001 003 007 015 008 005 004 005 004 004 006 004 003 003
001 001 002 002 001 001 001 001 002 001 001 001 001 001 001 001 001 002 003 006 006 006 006 006 006 006 004 006 005 003 003
002 002 002 001 001 001 001 002 002 002 001 001 001 001 001 001 002 003 007 005 004 005 006 008 006 008 009 006 004 004 003
002 002 002 001 002 002 001 002 003 002 002 002 001 001 001 001 002 004 021 015 006 006 006 007 006 008 008 005 004 004 003
002 001 001 002 002 003 002 002 001 002 002 002 002 002 003 001 002 004 013 008 006 006 005 006 007 007 011 008 005 004 004
001 001 001 001 001 002 001 001 001 001 002 002 002 002 002 002 002 005 010 007 007 010 006 006 008 005 004 007 003 003 003
000 001 001 001 001 001 001 001 001 001 001 002 002 003 002 002 002 007 005 008 005 009 007 004 005 006 005 004 003 003 003
000 000 000 001 000 000 001 001 000 001 001 002 003 004 003 003 003 012 007 008 009 008 006 003 004 005 003 004 003 005 003
000 000 000 000 000 000 001 001 000 001 004 005 003 005 006 004 004 007 003 004 003 002 003 002 003 004 004 005 006 007 006
000 000 000 000 000 001 001 001 002 005 006 008 005 008 005 004 006 005 004 004 002 002 002 001 002 003 004 006 005 004 004
000 000 000 000 000 000 001 002 007 007 011 010 008 009 006 005 006 004 005 003 003 001 002 001 002 004 003 006 006 005 005
000 000 000 000 000 000 000 001 005 006 007 011 007 009 007 006 007 006 006 004 003 003 002 004 002 003 003 005 006 006 006
000 000 000 000 000 000 000 001 005 013 010 012 006 007 006 007 009 009 004 003 002 002 003 006 002 002 001 004 006 007 005
000 000 000 000 000 000 000 001 006 018 014 015 014 013 009 014 014 008 010 004 006 005 008 007 004 007 004 005 006 006 005
000 000 000 000 000 000 000 002 014 017 024 026 034 033 017 025 019 009 013 007 007 006 007 006 004 010 007 006 007 006 006
001 001 000 000 000 000 001 009 024 022 033 029 027 032 020 030 022 018 026 023 019 010 013 008 009 014 012 011 013 015 007
001 001 000 001 000 000 002 028 033 021 030 025 015 017 017 015 030 035 039 058 051 025 028 021 033 024 017 015 017 015 013
001 001 001 003 001 000 002 019 037 046 034 024 039 030 009 008 018 037 045 089 065 057 047 051 062 047 023 018 019 021 020
001 003 003 010 003 001 002 007 043 040 023 048 048 013 009 007 014 029 054 083 064 085 062 072 075 058 029 021 021 028 031
002 003 003 010 008 006 002 009 042 047 031 026 054 009 009 005 005 025 085 077 064 073 061 066 048 054 031 026 021 033 050
002 003 003 011 028 017 012 030 035 037 026 023 009 003 002 002 005 060 071 065 069 068 073 068 052 049 039 022 018 023 047
003 003 004 008 030 029 019 028 025 028 026 023 010 004 001 001 007 064 080 066 092 072 061 075 039 066 026 023 015 014 031
004 002 003 003 018 013 017 024 046 023 030 023 012 003 001 001 007 057 073 078 109 096 066 064 066 040 035 029 017 013 022
006 003 003 007 013 010 020 017 029 034 025 010 004 002 001 001 006 029 034 069 082 109 058 066 062 042 042 035 023 015 012
005 003 004 008 006 006 011 015 026 039 021 010 002 001 001 001 006 006 012 025 046 085 068 080 072 051 023 040 025 030 014
005 002 013 008 005 006 005 009 017 017 011 005 001 000 000 001 006 006 007 015 046 034 066 066 064 077 085 035 043 030 017
004 002 009 009 005 003 003 003 007 009 010 004 001 000 000 000 001 002 004 017 039 034 066 066 064 088 140 096 109 064 033
002 003 008 005 005 004 004 004 003 006 009 003 000 000 000 000 002 004 007 015 024 068 057 085 100 114 123 096 109 064 033
004 003 006 004 003 003 002 002 002 004 003 001 000 000 000 000 002 010 012 011 010 045 025 071 069 089 107 094 089 052 034
005 003 003 002 001 002 002 001 001 002 002 001 000 000 000 000 008 006 009 006 007 027 024 056 064 118 100 089 118 092 075
007 004 004 002 001 001 002 001 001 001 002 001 003 002 002 001 003 003 008 009 008 018 019 042 078 089 071 152 137 105 083
008 006 005 005 002 002 001 001 001 001 001 001 004 003 003 001 001 002 006 005 010 019 027 036 068 061 064 078 179 111 087
013 014 005 006 003 003 001 001 001 001 001 004 005 004 003 001 001 002 003 001 007 017 022 027 053 052 030 068 140 116 089
009 011 006 006 007 006 003 001 001 001 001 004 004 004 004 001 001 002 001 003 008 012 007 007 013 009 017 036 078 054 071
004 006 006 005 004 004 002 001 000 000 001 004 005 003 002 001 001 002 002 006 005 003 003 005 006 005 006 015 019 044 047
003 003 006 003 001 001 001 000 000 000 000 001 006 004 002 001 003 005 004 022 005 002 002 004 004 004 003 009 013 023 027
001 002 004 003 001 000 000 000 000 000 000 002 003 002 001 001 004 006 011 012 004 001 002 003 006 004 002 003 006 021 018
001 001 002 002 001 000 001 000 000 000 000 000 001 001 001 002 001 007 010 011 006 001 001 003 005 004 001 002 006 015 008
000 000 001 002 000 000 001 000 000 000 000 000 000 000 001 000 001 003 004 005 003 001 003 002 003 002 001 001 008 002 003
000 000 000 000 000 000 000 000 000 000 000 000 000 000 000 000 000 001 002 005 003 005 004 002 001 001 002 001 -99 000 001
000 000 000 000 000 000 000 000 000 000 000 000 000 000 000 000 000 001 001 004 006 011 005 000 000 001 002 000 000 000 000
000 000 000 000 000 000 000 000 000 000 000 000 000 000 000 000 001 002 002 003 005 008 002 002 000 001 000 000 000 000 000
000 000 000 000 000 000 000 000 000 000 000 000 000 000 000 000 003 003 002 001 001 003 004 004 000 000 000 000 000 000 000
000 000 000 001 000 000 000 000 000 000 000 -99 000 000 000 000 006 005 003 001 001 001 005 002 000 000 001 000 000 000 000
001 000 002 001 001 001 000 000 000 000 000 000 000 000 000 001 002 006 003 001 000 000 006 001 003 001 001 002 001 000 000
001 000 000 001 001 001 001 001 000 000 000 000 000 000 001 001 003 004 002 000 000 000 001 001 005 003 011 004 001 000 000
000 000 000 000 001 001 001 001 001 000 000 000 000 000 004 002 003 002 001 000 000 000 000 005 002 007 014 006 004 001 000
000 000 000 000 000 000 000 002 001 000 000 000 000 003 004 001 001 001 001 000 000 000 001 004 003 017 016 009 003 001 001
